(benchmark gametime
:status unknown
:logic QF_AUFBV
:extrafuns ((gtINDEX70  BitVec[32]))
:extrafuns ((gtFIELD__bitsForTID0__gtAGG____anonstruct_D_Work_4  Array[32:32]))
:extrafuns ((gtINDEX71  BitVec[32]))
:extrafuns ((gtAGG__rtDWork  BitVec[32]))
:extrafuns ((gtINDEX68  BitVec[32]))
:extrafuns ((gtINDEX69  BitVec[32]))
:extrafuns ((gtINDEX66  BitVec[32]))
:extrafuns ((gtINDEX67  BitVec[32]))
:extrafuns ((gtINDEX64  BitVec[32]))
:extrafuns ((gtINDEX65  BitVec[32]))
:extrafuns ((gtINDEX63  BitVec[32]))
:extrafuns ((gtINDEX62  BitVec[32]))
:extrafuns ((gtINDEX61  BitVec[32]))
:extrafuns ((gtINDEX60  BitVec[32]))
:extrafuns ((gtINDEX58  BitVec[32]))
:extrafuns ((gtINDEX59  BitVec[32]))
:extrafuns ((gtINDEX56  BitVec[32]))
:extrafuns ((gtINDEX57  BitVec[32]))
:extrafuns ((gtINDEX54  BitVec[32]))
:extrafuns ((gtINDEX55  BitVec[32]))
:extrafuns ((gtINDEX53  BitVec[32]))
:extrafuns ((gtINDEX51  BitVec[32]))
:extrafuns ((gtINDEX52  BitVec[32]))
:extrafuns ((gtINDEX49  BitVec[32]))
:extrafuns ((gtINDEX50  BitVec[32]))
:extrafuns ((gtINDEX47  BitVec[32]))
:extrafuns ((gtINDEX48  BitVec[32]))
:extrafuns ((gtINDEX45  BitVec[32]))
:extrafuns ((gtINDEX46  BitVec[32]))
:extrafuns ((gtINDEX43  BitVec[32]))
:extrafuns ((gtINDEX44  BitVec[32]))
:extrafuns ((gtINDEX41  BitVec[32]))
:extrafuns ((gtINDEX42  BitVec[32]))
:extrafuns ((gtINDEX39  BitVec[32]))
:extrafuns ((gtINDEX40  BitVec[32]))
:extrafuns ((gtINDEX38  BitVec[32]))
:extrafuns ((gtINDEX36  BitVec[32]))
:extrafuns ((gtINDEX37  BitVec[32]))
:extrafuns ((gtINDEX35  BitVec[32]))
:extrafuns ((gtINDEX33  BitVec[32]))
:extrafuns ((gtINDEX34  BitVec[32]))
:extrafuns ((gtINDEX31  BitVec[32]))
:extrafuns ((gtINDEX32  BitVec[32]))
:extrafuns ((gtINDEX30  BitVec[32]))
:extrafuns ((gtINDEX29  BitVec[32]))
:extrafuns ((gtINDEX28  BitVec[32]))
:extrafuns ((gtINDEX27  BitVec[32]))
:extrafuns ((gtINDEX26  BitVec[32]))
:extrafuns ((gtINDEX25  BitVec[32]))
:extrafuns ((gtINDEX23  BitVec[32]))
:extrafuns ((gtINDEX24  BitVec[32]))
:extrafuns ((gtINDEX21  BitVec[32]))
:extrafuns ((gtINDEX22  BitVec[32]))
:extrafuns ((gtINDEX19  BitVec[32]))
:extrafuns ((gtINDEX20  BitVec[32]))
:extrafuns ((gtINDEX18  BitVec[32]))
:extrafuns ((gtINDEX16  BitVec[32]))
:extrafuns ((gtINDEX17  BitVec[32]))
:extrafuns ((gtINDEX14  BitVec[32]))
:extrafuns ((gtINDEX15  BitVec[32]))
:extrafuns ((gtINDEX12  BitVec[32]))
:extrafuns ((gtINDEX13  BitVec[32]))
:extrafuns ((gtINDEX10  BitVec[32]))
:extrafuns ((gtINDEX11  BitVec[32]))
:extrafuns ((gtINDEX8  BitVec[32]))
:extrafuns ((gtINDEX9  BitVec[32]))
:extrafuns ((gtINDEX6  BitVec[32]))
:extrafuns ((gtINDEX7  BitVec[32]))
:extrafuns ((gtINDEX4  BitVec[32]))
:extrafuns ((gtINDEX5  BitVec[32]))
:extrafuns ((gtINDEX2  BitVec[32]))
:extrafuns ((gtINDEX3  BitVec[32]))
:extrafuns ((gtINDEX0  BitVec[32]))
:extrafuns ((gtINDEX1  BitVec[32]))
:extrafuns ((gtFIELD__is_Eng__gtAGG____anonstruct_bitsForTID0_5_1_  Array[32:1]))
:extrafuns ((gtFIELD__is_Eng__gtAGG____anonstruct_bitsForTID0_5_2_  Array[32:1]))
:extrafuns ((sf_previousEvent_1_  BitVec[32]))
:extrafuns ((sfEvent__2_  BitVec[32]))
:extrafuns ((gtFIELD__is_Eng__gtAGG____anonstruct_bitsForTID0_5  Array[32:1]))
:extrafuns ((gtFIELD__sent__gtAGG____anonstruct_D_Work_4_1_  Array[32:32]))
:extrafuns ((gtFIELD__sent__gtAGG____anonstruct_D_Work_4_2_  Array[32:32]))
:extrafuns ((gtFIELD__is_active_Eng__gtAGG____anonstruct_bitsForTID0_5  Array[32:1]))
:extrafuns ((gtFIELD__is_active_PURI__gtAGG____anonstruct_bitsForTID0_5  Array[32:1]))
:extrafuns ((gtFIELD__is_PVRP__gtAGG____anonstruct_bitsForTID0_5  Array[32:2]))
:extrafuns ((gtFIELD__is_active_PVRP__gtAGG____anonstruct_bitsForTID0_5  Array[32:1]))
:extrafuns ((gtFIELD__is_active_PPVARP__gtAGG____anonstruct_bitsForTID0_5  Array[32:1]))
:extrafuns ((sfEvent__1_  BitVec[32]))
:extrafuns ((gtFIELD__is_PLRI__gtAGG____anonstruct_bitsForTID0_5  Array[32:2]))
:extrafuns ((gtFIELD__is_active_PLRI__gtAGG____anonstruct_bitsForTID0_5  Array[32:1]))
:extrafuns ((gtFIELD__temporalCounter_i1__gtAGG____anonstruct_D_Work_4  Array[32:32]))
:extrafuns ((gtFIELD__temporalCounter_i1__gtAGG____anonstruct_D_Work_4_1_  Array[32:32]))
:extrafuns ((gtFIELD__is_PAVI__gtAGG____anonstruct_bitsForTID0_5  Array[32:3]))
:extrafuns ((gtFIELD__is_PAVI__gtAGG____anonstruct_bitsForTID0_5_1_  Array[32:3]))
:extrafuns ((gtFIELD__n_t__gtAGG____anonstruct_D_Work_4  Array[32:32]))
:extrafuns ((gtFIELD__n_t__gtAGG____anonstruct_D_Work_4_1_  Array[32:32]))
:extrafuns ((gtFIELD__is_active_PAVI__gtAGG____anonstruct_bitsForTID0_5  Array[32:1]))
:extrafuns ((sfEvent_  BitVec[32]))
:extrafuns ((gtFIELD__sent__gtAGG____anonstruct_D_Work_4  Array[32:32]))
:extrapreds ((constraint127 ))
:extrapreds ((constraint126 ))
:extrapreds ((constraint125 ))
:extrapreds ((constraint124 ))
:extrapreds ((constraint123 ))
:extrapreds ((constraint122 ))
:extrapreds ((constraint121 ))
:extrapreds ((constraint120 ))
:extrapreds ((constraint119 ))
:extrapreds ((constraint118 ))
:extrapreds ((constraint117 ))
:extrapreds ((constraint116 ))
:extrapreds ((constraint115 ))
:extrapreds ((constraint114 ))
:extrapreds ((constraint113 ))
:extrapreds ((constraint112 ))
:extrapreds ((constraint111 ))
:extrapreds ((constraint110 ))
:extrapreds ((constraint109 ))
:extrapreds ((constraint108 ))
:extrapreds ((constraint107 ))
:extrapreds ((constraint106 ))
:extrapreds ((constraint105 ))
:extrapreds ((constraint104 ))
:extrapreds ((constraint103 ))
:extrapreds ((constraint102 ))
:extrapreds ((constraint101 ))
:extrapreds ((constraint100 ))
:extrapreds ((constraint99 ))
:extrapreds ((constraint98 ))
:extrapreds ((constraint97 ))
:extrapreds ((constraint96 ))
:extrapreds ((constraint95 ))
:extrapreds ((constraint94 ))
:extrapreds ((constraint93 ))
:extrapreds ((constraint92 ))
:extrapreds ((constraint91 ))
:extrapreds ((constraint90 ))
:extrapreds ((constraint89 ))
:extrapreds ((constraint88 ))
:extrapreds ((constraint87 ))
:extrapreds ((constraint86 ))
:extrapreds ((constraint85 ))
:extrapreds ((constraint84 ))
:extrapreds ((constraint83 ))
:extrapreds ((constraint82 ))
:extrapreds ((constraint81 ))
:extrapreds ((constraint80 ))
:extrapreds ((constraint79 ))
:extrapreds ((constraint78 ))
:extrapreds ((constraint77 ))
:extrapreds ((constraint76 ))
:extrapreds ((constraint75 ))
:extrapreds ((constraint74 ))
:extrapreds ((constraint73 ))
:extrapreds ((constraint72 ))
:extrapreds ((constraint71 ))
:extrapreds ((constraint70 ))
:extrapreds ((constraint69 ))
:extrapreds ((constraint68 ))
:extrapreds ((constraint67 ))
:extrapreds ((constraint66 ))
:extrapreds ((constraint65 ))
:extrapreds ((constraint64 ))
:extrapreds ((constraint63 ))
:extrapreds ((constraint62 ))
:extrapreds ((constraint61 ))
:extrapreds ((constraint60 ))
:extrapreds ((constraint59 ))
:extrapreds ((constraint58 ))
:extrapreds ((constraint57 ))
:extrapreds ((constraint56 ))
:extrapreds ((constraint55 ))
:extrapreds ((constraint54 ))
:extrapreds ((constraint53 ))
:extrapreds ((constraint52 ))
:extrapreds ((constraint51 ))
:extrapreds ((constraint50 ))
:extrapreds ((constraint49 ))
:extrapreds ((constraint48 ))
:extrapreds ((constraint47 ))
:extrapreds ((constraint46 ))
:extrapreds ((constraint45 ))
:extrapreds ((constraint44 ))
:extrapreds ((constraint43 ))
:extrapreds ((constraint42 ))
:extrapreds ((constraint41 ))
:extrapreds ((constraint40 ))
:extrapreds ((constraint39 ))
:extrapreds ((constraint38 ))
:extrapreds ((constraint37 ))
:extrapreds ((constraint36 ))
:extrapreds ((constraint35 ))
:extrapreds ((constraint34 ))
:extrapreds ((constraint33 ))
:extrapreds ((constraint32 ))
:extrapreds ((constraint31 ))
:extrapreds ((constraint30 ))
:extrapreds ((constraint29 ))
:extrapreds ((constraint28 ))
:extrapreds ((constraint27 ))
:extrapreds ((constraint26 ))
:extrapreds ((constraint25 ))
:extrapreds ((constraint24 ))
:extrapreds ((constraint23 ))
:extrapreds ((constraint22 ))
:extrapreds ((constraint21 ))
:extrapreds ((constraint20 ))
:extrapreds ((constraint19 ))
:extrapreds ((constraint18 ))
:extrapreds ((constraint17 ))
:extrapreds ((constraint16 ))
:extrapreds ((constraint15 ))
:extrapreds ((constraint14 ))
:extrapreds ((constraint13 ))
:extrapreds ((constraint12 ))
:extrapreds ((constraint11 ))
:extrapreds ((constraint10 ))
:extrapreds ((constraint9 ))
:extrapreds ((constraint8 ))
:extrapreds ((constraint7 ))
:extrapreds ((constraint6 ))
:extrapreds ((constraint5 ))
:extrapreds ((constraint4 ))
:extrapreds ((constraint3 ))
:extrapreds ((constraint2 ))
:extrapreds ((constraint1 ))
:extrapreds ((constraint0 ))
:formula
(flet ($x651 (and constraint0 constraint1 constraint2 constraint3 constraint4 constraint5 constraint6 constraint7 constraint8 constraint9 constraint10 constraint11 constraint12 constraint13 constraint14 constraint15 constraint16 constraint17 constraint18 constraint19 constraint20 constraint21 constraint22 constraint23 constraint24 constraint25 constraint26 constraint27 constraint28 constraint29 constraint30 constraint31 constraint32 constraint33 constraint34 constraint35 constraint36 constraint37 constraint38 constraint39 constraint40 constraint41 constraint42 constraint43 constraint44 constraint45 constraint46 constraint47 constraint48 constraint49 constraint50 constraint51 constraint52 constraint53 constraint54 constraint55 constraint56 constraint57 constraint58 constraint59 constraint60 constraint61 constraint62 constraint63 constraint64 constraint65 constraint66 constraint67 constraint68 constraint69 constraint70 constraint71 constraint72 constraint73 constraint74 constraint75 constraint76 constraint77 constraint78 constraint79 constraint80 constraint81 constraint82 constraint83 constraint84 constraint85 constraint86 constraint87 constraint88 constraint89 constraint90 constraint91 constraint92 constraint93 constraint94 constraint95 constraint96 constraint97 constraint98 constraint99 constraint100 constraint101 constraint102 constraint103 constraint104 constraint105 constraint106 constraint107 constraint108 constraint109 constraint110 constraint111 constraint112 constraint113 constraint114 constraint115 constraint116 constraint117 constraint118 constraint119 constraint120 constraint121 constraint122 constraint123 constraint124 constraint125 constraint126 constraint127))
(flet ($x393 (= gtINDEX71 (select gtFIELD__bitsForTID0__gtAGG____anonstruct_D_Work_4 gtINDEX70)))
(flet ($x389 (= gtINDEX69 (select gtFIELD__bitsForTID0__gtAGG____anonstruct_D_Work_4 gtINDEX68)))
(flet ($x385 (= gtINDEX67 (select gtFIELD__bitsForTID0__gtAGG____anonstruct_D_Work_4 gtINDEX66)))
(flet ($x381 (= gtINDEX65 (select gtFIELD__bitsForTID0__gtAGG____anonstruct_D_Work_4 gtINDEX64)))
(flet ($x373 (= gtINDEX59 (select gtFIELD__bitsForTID0__gtAGG____anonstruct_D_Work_4 gtINDEX58)))
(flet ($x369 (= gtINDEX57 (select gtFIELD__bitsForTID0__gtAGG____anonstruct_D_Work_4 gtINDEX56)))
(flet ($x365 (= gtINDEX55 (select gtFIELD__bitsForTID0__gtAGG____anonstruct_D_Work_4 gtINDEX54)))
(flet ($x360 (= gtINDEX52 (select gtFIELD__bitsForTID0__gtAGG____anonstruct_D_Work_4 gtINDEX51)))
(flet ($x356 (= gtINDEX50 (select gtFIELD__bitsForTID0__gtAGG____anonstruct_D_Work_4 gtINDEX49)))
(flet ($x352 (= gtINDEX48 (select gtFIELD__bitsForTID0__gtAGG____anonstruct_D_Work_4 gtINDEX47)))
(flet ($x348 (= gtINDEX46 (select gtFIELD__bitsForTID0__gtAGG____anonstruct_D_Work_4 gtINDEX45)))
(flet ($x344 (= gtINDEX44 (select gtFIELD__bitsForTID0__gtAGG____anonstruct_D_Work_4 gtINDEX43)))
(flet ($x340 (= gtINDEX42 (select gtFIELD__bitsForTID0__gtAGG____anonstruct_D_Work_4 gtINDEX41)))
(flet ($x336 (= gtINDEX40 (select gtFIELD__bitsForTID0__gtAGG____anonstruct_D_Work_4 gtINDEX39)))
(flet ($x331 (= gtINDEX37 (select gtFIELD__bitsForTID0__gtAGG____anonstruct_D_Work_4 gtINDEX36)))
(flet ($x326 (= gtINDEX34 (select gtFIELD__bitsForTID0__gtAGG____anonstruct_D_Work_4 gtINDEX33)))
(flet ($x322 (= gtINDEX32 (select gtFIELD__bitsForTID0__gtAGG____anonstruct_D_Work_4 gtINDEX31)))
(flet ($x312 (= gtINDEX24 (select gtFIELD__bitsForTID0__gtAGG____anonstruct_D_Work_4 gtINDEX23)))
(flet ($x308 (= gtINDEX22 (select gtFIELD__bitsForTID0__gtAGG____anonstruct_D_Work_4 gtINDEX21)))
(flet ($x304 (= gtINDEX20 (select gtFIELD__bitsForTID0__gtAGG____anonstruct_D_Work_4 gtINDEX19)))
(flet ($x299 (= gtINDEX17 (select gtFIELD__bitsForTID0__gtAGG____anonstruct_D_Work_4 gtINDEX16)))
(flet ($x295 (= gtINDEX15 (select gtFIELD__bitsForTID0__gtAGG____anonstruct_D_Work_4 gtINDEX14)))
(flet ($x291 (= gtINDEX13 (select gtFIELD__bitsForTID0__gtAGG____anonstruct_D_Work_4 gtINDEX12)))
(flet ($x287 (= gtINDEX11 (select gtFIELD__bitsForTID0__gtAGG____anonstruct_D_Work_4 gtINDEX10)))
(flet ($x283 (= gtINDEX9 (select gtFIELD__bitsForTID0__gtAGG____anonstruct_D_Work_4 gtINDEX8)))
(flet ($x279 (= gtINDEX7 (select gtFIELD__bitsForTID0__gtAGG____anonstruct_D_Work_4 gtINDEX6)))
(flet ($x275 (= gtINDEX5 (select gtFIELD__bitsForTID0__gtAGG____anonstruct_D_Work_4 gtINDEX4)))
(flet ($x271 (= gtINDEX3 (select gtFIELD__bitsForTID0__gtAGG____anonstruct_D_Work_4 gtINDEX2)))
(flet ($x267 (= gtINDEX1 (select gtFIELD__bitsForTID0__gtAGG____anonstruct_D_Work_4 gtINDEX0)))
(let (?x251 (extract[0:0] bv1[32]))
(let (?x261 (store gtFIELD__is_Eng__gtAGG____anonstruct_bitsForTID0_5_1_ gtINDEX71 ?x251))
(flet ($x505 (iff constraint55 (= gtFIELD__is_Eng__gtAGG____anonstruct_bitsForTID0_5_2_ ?x261)))
(let (?x257 (select gtFIELD__is_Eng__gtAGG____anonstruct_bitsForTID0_5_1_ gtINDEX69))
(let (?x252 (store gtFIELD__is_Eng__gtAGG____anonstruct_bitsForTID0_5 gtINDEX67 ?x251))
(flet ($x499 (iff constraint52 (= gtFIELD__is_Eng__gtAGG____anonstruct_bitsForTID0_5_1_ ?x252)))
(let (?x248 (zero_extend[31] (select gtFIELD__is_Eng__gtAGG____anonstruct_bitsForTID0_5 gtINDEX65)))
(let (?x244 (store gtFIELD__sent__gtAGG____anonstruct_D_Work_4_1_ gtINDEX63 bv0[32]))
(flet ($x495 (iff constraint50 (= gtFIELD__sent__gtAGG____anonstruct_D_Work_4_2_ ?x244)))
(let (?x135 (bvmul bv4294967295[32] bv1[32]))
(flet ($x242 (= (select gtFIELD__sent__gtAGG____anonstruct_D_Work_4_1_ gtINDEX62) ?x135))
(flet ($x238 (= (select gtFIELD__sent__gtAGG____anonstruct_D_Work_4_1_ gtINDEX61) bv9[32]))
(flet ($x234 (= (select gtFIELD__sent__gtAGG____anonstruct_D_Work_4_1_ gtINDEX60) bv4[32]))
(let (?x230 (zero_extend[31] (select gtFIELD__is_Eng__gtAGG____anonstruct_bitsForTID0_5 gtINDEX59)))
(let (?x224 (select gtFIELD__is_active_Eng__gtAGG____anonstruct_bitsForTID0_5 gtINDEX57))
(let (?x218 (select gtFIELD__is_active_PURI__gtAGG____anonstruct_bitsForTID0_5 gtINDEX55))
(flet ($x215 (= (select gtFIELD__sent__gtAGG____anonstruct_D_Work_4_1_ gtINDEX53) bv0[32]))
(let (?x210 (select gtFIELD__is_PVRP__gtAGG____anonstruct_bitsForTID0_5 gtINDEX52))
(let (?x205 (select gtFIELD__is_PVRP__gtAGG____anonstruct_bitsForTID0_5 gtINDEX50))
(let (?x200 (select gtFIELD__is_active_PVRP__gtAGG____anonstruct_bitsForTID0_5 gtINDEX48))
(let (?x194 (select gtFIELD__is_active_PPVARP__gtAGG____anonstruct_bitsForTID0_5 gtINDEX46))
(let (?x186 (select gtFIELD__is_PLRI__gtAGG____anonstruct_bitsForTID0_5 gtINDEX44))
(let (?x181 (select gtFIELD__is_PLRI__gtAGG____anonstruct_bitsForTID0_5 gtINDEX42))
(let (?x176 (select gtFIELD__is_active_PLRI__gtAGG____anonstruct_bitsForTID0_5 gtINDEX40))
(let (?x173 (store gtFIELD__temporalCounter_i1__gtAGG____anonstruct_D_Work_4 gtINDEX38 bv0[32]))
(flet ($x461 (iff constraint33 (= gtFIELD__temporalCounter_i1__gtAGG____anonstruct_D_Work_4_1_ ?x173)))
(let (?x170 (store gtFIELD__is_PAVI__gtAGG____anonstruct_bitsForTID0_5 gtINDEX37 (extract[2:0] bv2[32])))
(flet ($x459 (iff constraint32 (= gtFIELD__is_PAVI__gtAGG____anonstruct_bitsForTID0_5_1_ ?x170)))
(flet ($x167 (= gtFIELD__n_t__gtAGG____anonstruct_D_Work_4_1_ (store gtFIELD__n_t__gtAGG____anonstruct_D_Work_4 gtINDEX35 bv0[32])))
(let (?x160 (select gtFIELD__is_PAVI__gtAGG____anonstruct_bitsForTID0_5 gtINDEX34))
(let (?x155 (select gtFIELD__is_active_PAVI__gtAGG____anonstruct_bitsForTID0_5 gtINDEX32))
(flet ($x147 (= gtFIELD__sent__gtAGG____anonstruct_D_Work_4_1_ (store gtFIELD__sent__gtAGG____anonstruct_D_Work_4 gtINDEX30 ?x135)))
(flet ($x144 (= (select gtFIELD__sent__gtAGG____anonstruct_D_Work_4 gtINDEX29) bv2[32]))
(flet ($x140 (= (select gtFIELD__sent__gtAGG____anonstruct_D_Work_4 gtINDEX28) bv1[32]))
(flet ($x136 (= (select gtFIELD__sent__gtAGG____anonstruct_D_Work_4 gtINDEX27) ?x135))
(flet ($x130 (= (select gtFIELD__sent__gtAGG____anonstruct_D_Work_4 gtINDEX26) bv9[32]))
(flet ($x125 (= (select gtFIELD__sent__gtAGG____anonstruct_D_Work_4 gtINDEX25) bv4[32]))
(let (?x121 (zero_extend[31] (select gtFIELD__is_Eng__gtAGG____anonstruct_bitsForTID0_5 gtINDEX24)))
(let (?x115 (select gtFIELD__is_active_Eng__gtAGG____anonstruct_bitsForTID0_5 gtINDEX22))
(let (?x109 (select gtFIELD__is_active_PURI__gtAGG____anonstruct_bitsForTID0_5 gtINDEX20))
(flet ($x106 (= (select gtFIELD__sent__gtAGG____anonstruct_D_Work_4 gtINDEX18) bv0[32]))
(let (?x101 (select gtFIELD__is_PVRP__gtAGG____anonstruct_bitsForTID0_5 gtINDEX17))
(let (?x96 (select gtFIELD__is_PVRP__gtAGG____anonstruct_bitsForTID0_5 gtINDEX15))
(let (?x91 (select gtFIELD__is_active_PVRP__gtAGG____anonstruct_bitsForTID0_5 gtINDEX13))
(let (?x85 (select gtFIELD__is_active_PPVARP__gtAGG____anonstruct_bitsForTID0_5 gtINDEX11))
(let (?x76 (zero_extend[30] (select gtFIELD__is_PLRI__gtAGG____anonstruct_bitsForTID0_5 gtINDEX9)))
(let (?x71 (zero_extend[30] (select gtFIELD__is_PLRI__gtAGG____anonstruct_bitsForTID0_5 gtINDEX7)))
(let (?x65 (select gtFIELD__is_active_PLRI__gtAGG____anonstruct_bitsForTID0_5 gtINDEX5))
(let (?x55 (zero_extend[29] (select gtFIELD__is_PAVI__gtAGG____anonstruct_bitsForTID0_5 gtINDEX3)))
(let (?x48 (select gtFIELD__is_active_PAVI__gtAGG____anonstruct_bitsForTID0_5 gtINDEX1))
(flet ($x650 (and (iff constraint0 (not (= sfEvent_ bv8[32]))) (iff constraint1 (not (= (zero_extend[31] ?x48) bv0[32]))) (iff constraint2 (= ?x55 bv1[32])) (iff constraint3 (not (= sfEvent_ bv2[32]))) (iff constraint4 (not (= sfEvent_ bv3[32]))) (iff constraint5 (not (= (zero_extend[31] ?x65) bv0[32]))) (iff constraint6 (not (= ?x71 bv1[32]))) (iff constraint7 (= ?x76 bv2[32])) (iff constraint8 (not (= sfEvent_ bv4[32]))) (iff constraint9 (not (= sfEvent_ bv5[32]))) (iff constraint10 (not (not (= (zero_extend[31] ?x85) bv0[32])))) (iff constraint11 (not (= (zero_extend[31] ?x91) bv0[32]))) (iff constraint12 (not (= (zero_extend[30] ?x96) bv1[32]))) (iff constraint13 (= (zero_extend[30] ?x101) bv2[32])) (iff constraint14 (not $x106)) (iff constraint15 (not (not (= (zero_extend[31] ?x109) bv0[32])))) (iff constraint16 (not (= (zero_extend[31] ?x115) bv0[32]))) (iff constraint17 (= ?x121 bv1[32])) (iff constraint18 (not $x125)) (iff constraint19 (not $x130)) (iff constraint20 (not $x136)) (iff constraint21 (not $x140)) (iff constraint22 $x144) (iff constraint23 $x147) (iff constraint24 (= sf_previousEvent_1_ sfEvent_)) (iff constraint25 (= sfEvent__1_ bv3[32])) (iff constraint26 (not (= sfEvent__1_ bv8[32]))) (iff constraint27 (not (= (zero_extend[31] ?x155) bv0[32]))) (iff constraint28 (= (zero_extend[29] ?x160) bv1[32])) (iff constraint29 (not (= sfEvent__1_ bv2[32]))) (iff constraint30 (= sfEvent__1_ bv3[32])) (iff constraint31 $x167) $x459 $x461 (iff constraint34 (not (= (zero_extend[31] ?x176) bv0[32]))) (iff constraint35 (not (= (zero_extend[30] ?x181) bv1[32]))) (iff constraint36 (= (zero_extend[30] ?x186) bv2[32])) (iff constraint37 (not (= sfEvent__1_ bv4[32]))) (iff constraint38 (not (= sfEvent__1_ bv5[32]))) (iff constraint39 (not (not (= (zero_extend[31] ?x194) bv0[32])))) (iff constraint40 (not (= (zero_extend[31] ?x200) bv0[32]))) (iff constraint41 (not (= (zero_extend[30] ?x205) bv1[32]))) (iff constraint42 (= (zero_extend[30] ?x210) bv2[32])) (iff constraint43 (not $x215)) (iff constraint44 (not (not (= (zero_extend[31] ?x218) bv0[32])))) (iff constraint45 (not (= (zero_extend[31] ?x224) bv0[32]))) (iff constraint46 (= ?x230 bv1[32])) (iff constraint47 (not $x234)) (iff constraint48 (not $x238)) (iff constraint49 $x242) $x495 (iff constraint51 (= ?x248 bv1[32])) $x499 (iff constraint53 (= sfEvent__2_ sf_previousEvent_1_)) (iff constraint54 (= (zero_extend[31] ?x257) bv1[32])) $x505 (iff constraint56 (= gtINDEX0 gtAGG__rtDWork)) (iff constraint57 $x267) (iff constraint58 (= gtINDEX2 gtAGG__rtDWork)) (iff constraint59 $x271) (iff constraint60 (= gtINDEX4 gtAGG__rtDWork)) (iff constraint61 $x275) (iff constraint62 (= gtINDEX6 gtAGG__rtDWork)) (iff constraint63 $x279) (iff constraint64 (= gtINDEX8 gtAGG__rtDWork)) (iff constraint65 $x283) (iff constraint66 (= gtINDEX10 gtAGG__rtDWork)) (iff constraint67 $x287) (iff constraint68 (= gtINDEX12 gtAGG__rtDWork)) (iff constraint69 $x291) (iff constraint70 (= gtINDEX14 gtAGG__rtDWork)) (iff constraint71 $x295) (iff constraint72 (= gtINDEX16 gtAGG__rtDWork)) (iff constraint73 $x299) (iff constraint74 (= gtINDEX18 gtAGG__rtDWork)) (iff constraint75 (= gtINDEX19 gtAGG__rtDWork)) (iff constraint76 $x304) (iff constraint77 (= gtINDEX21 gtAGG__rtDWork)) (iff constraint78 $x308) (iff constraint79 (= gtINDEX23 gtAGG__rtDWork)) (iff constraint80 $x312) (iff constraint81 (= gtINDEX25 gtAGG__rtDWork)) (iff constraint82 (= gtINDEX26 gtAGG__rtDWork)) (iff constraint83 (= gtINDEX27 gtAGG__rtDWork)) (iff constraint84 (= gtINDEX28 gtAGG__rtDWork)) (iff constraint85 (= gtINDEX29 gtAGG__rtDWork)) (iff constraint86 (= gtINDEX30 gtAGG__rtDWork)) (iff constraint87 (= gtINDEX31 gtAGG__rtDWork)) (iff constraint88 $x322) (iff constraint89 (= gtINDEX33 gtAGG__rtDWork)) (iff constraint90 $x326) (iff constraint91 (= gtINDEX35 gtAGG__rtDWork)) (iff constraint92 (= gtINDEX36 gtAGG__rtDWork)) (iff constraint93 $x331) (iff constraint94 (= gtINDEX38 gtAGG__rtDWork)) (iff constraint95 (= gtINDEX39 gtAGG__rtDWork)) (iff constraint96 $x336) (iff constraint97 (= gtINDEX41 gtAGG__rtDWork)) (iff constraint98 $x340) (iff constraint99 (= gtINDEX43 gtAGG__rtDWork)) (iff constraint100 $x344) (iff constraint101 (= gtINDEX45 gtAGG__rtDWork)) (iff constraint102 $x348) (iff constraint103 (= gtINDEX47 gtAGG__rtDWork)) (iff constraint104 $x352) (iff constraint105 (= gtINDEX49 gtAGG__rtDWork)) (iff constraint106 $x356) (iff constraint107 (= gtINDEX51 gtAGG__rtDWork)) (iff constraint108 $x360) (iff constraint109 (= gtINDEX53 gtAGG__rtDWork)) (iff constraint110 (= gtINDEX54 gtAGG__rtDWork)) (iff constraint111 $x365) (iff constraint112 (= gtINDEX56 gtAGG__rtDWork)) (iff constraint113 $x369) (iff constraint114 (= gtINDEX58 gtAGG__rtDWork)) (iff constraint115 $x373) (iff constraint116 (= gtINDEX60 gtAGG__rtDWork)) (iff constraint117 (= gtINDEX61 gtAGG__rtDWork)) (iff constraint118 (= gtINDEX62 gtAGG__rtDWork)) (iff constraint119 (= gtINDEX63 gtAGG__rtDWork)) (iff constraint120 (= gtINDEX64 gtAGG__rtDWork)) (iff constraint121 $x381) (iff constraint122 (= gtINDEX66 gtAGG__rtDWork)) (iff constraint123 $x385) (iff constraint124 (= gtINDEX68 gtAGG__rtDWork)) (iff constraint125 $x389) (iff constraint126 (= gtINDEX70 gtAGG__rtDWork)) (iff constraint127 $x393)))
(and $x650 $x651))))))))))))))))))))))))))))))))))))))))))))))))))))))))))))))))))))))))))))))))))
)
